\ Model Investments
\ LP format - for model browsing. Use MPS format to capture full model detail.
Minimize
  0 A[1] + 0 A[2] + 0 A[3] + 0 A[4] + 0 A[5] + 0 A[6] + 0 A[7] + 0 A[8]
   + A[1] + B[1] + C[1] + D[1]
Subject To
 R0: 1.06 A[1] - A[2] = 0
 R1: 1.06 A[1] - A[2] = 0
 R2: 1.06 A[2] - A[3] + 1.14 B[1] - B[3] = 0
 R3: 1.06 A[3] - A[4] + 1.18 C[1] - C[4] = 0
 R4: 1.06 A[4] - A[5] + 1.14 B[3] - B[5] = 0
 R5: 1.06 A[5] - A[6] = 12000
 R6: 1.06 A[6] - A[7] + 1.14 B[5] - B[7] + 1.18 C[4] = 14000
 R7: 1.06 A[7] - A[8] + 1.65 D[1] = 16000
 R8: 1.06 A[8] + 1.14 B[7] = 18000
 R9: 1.06 A[1] - A[2] = 0
 R10: 1.06 A[2] - A[3] + 1.14 B[1] - B[3] = 0
 R11: 1.06 A[3] - A[4] + 1.18 C[1] - C[4] = 0
 R12: 1.06 A[4] - A[5] + 1.14 B[3] - B[5] = 0
 R13: 1.06 A[5] - A[6] = 12000
 R14: 1.06 A[6] - A[7] + 1.14 B[5] - B[7] + 1.18 C[4] = 14000
 R15: 1.06 A[7] - A[8] + 1.65 D[1] = 16000
 R16: 1.06 A[8] + 1.14 B[7] = 18000
Bounds
End
